c Command line: hgen8 200 90
p cnf 200 309
12 40 143 34 0
105 94 59 124 0
19 89 95 93 0
151 146 120 189 0
98 90 103 169 0
136 13 11 51 0
121 42 20 31 0
177 180 96 29 0
21 76 131 114 0
82 133 147 104 0
60 135 36 28 0
174 128 109 62 0
26 23 81 129 0
194 72 5 88 0
132 48 165 101 0
71 53 58 41 0
178 112 61 175 0
1 80 64 79 0
85 75 115 32 0
73 24 78 67 0
173 200 127 97 0
68 92 184 148 0
170 15 35 130 0
164 179 137 4 0
161 6 172 171 0
7 192 145 10 0
159 63 118 74 0
22 18 54 66 0
152 55 183 56 0
8 156 126 125 0
69 16 110 39 0
27 157 185 25 0
45 176 188 44 0
139 162 191 87 0
14 142 99 113 0
182 181 86 9 0
160 150 119 46 0
111 117 199 37 0
166 144 107 30 0
193 122 3 65 0
154 186 149 134 0
-1 -3 0
-1 -4 0
-1 -5 0
-3 -4 0
-3 -5 0
-4 -5 0
-6 -7 0
-6 -8 0
-6 -9 0
-6 -10 0
-7 -8 0
-7 -9 0
-7 -10 0
-8 -9 0
-8 -10 0
-9 -10 0
-11 -12 0
-11 -13 0
-11 -14 0
-11 -15 0
-12 -13 0
-12 -14 0
-12 -15 0
-13 -14 0
-13 -15 0
-14 -15 0
-16 -18 0
-16 -19 0
-16 -20 0
-18 -19 0
-18 -20 0
-19 -20 0
-21 -22 0
-21 -23 0
-21 -24 0
-21 -25 0
-22 -23 0
-22 -24 0
-22 -25 0
-23 -24 0
-23 -25 0
-24 -25 0
-26 -27 0
-26 -28 0
-26 -29 0
-26 -30 0
-27 -28 0
-27 -29 0
-27 -30 0
-28 -29 0
-28 -30 0
-29 -30 0
-31 -32 0
-31 -34 0
-31 -35 0
-32 -34 0
-32 -35 0
-34 -35 0
-36 -37 0
-36 -39 0
-36 -40 0
-37 -39 0
-37 -40 0
-39 -40 0
-41 -42 0
-41 -44 0
-41 -45 0
-42 -44 0
-42 -45 0
-44 -45 0
-46 -48 0
-51 -53 0
-51 -54 0
-51 -55 0
-53 -54 0
-53 -55 0
-54 -55 0
-56 -58 0
-56 -59 0
-56 -60 0
-58 -59 0
-58 -60 0
-59 -60 0
-61 -62 0
-61 -63 0
-61 -64 0
-61 -65 0
-62 -63 0
-62 -64 0
-62 -65 0
-63 -64 0
-63 -65 0
-64 -65 0
-66 -67 0
-66 -68 0
-66 -69 0
-67 -68 0
-67 -69 0
-68 -69 0
-71 -72 0
-71 -73 0
-71 -74 0
-71 -75 0
-72 -73 0
-72 -74 0
-72 -75 0
-73 -74 0
-73 -75 0
-74 -75 0
-76 -78 0
-76 -79 0
-76 -80 0
-78 -79 0
-78 -80 0
-79 -80 0
-81 -82 0
-81 -85 0
-82 -85 0
-86 -87 0
-86 -88 0
-86 -89 0
-86 -90 0
-87 -88 0
-87 -89 0
-87 -90 0
-88 -89 0
-88 -90 0
-89 -90 0
-92 -93 0
-92 -94 0
-92 -95 0
-93 -94 0
-93 -95 0
-94 -95 0
-96 -97 0
-96 -98 0
-96 -99 0
-97 -98 0
-97 -99 0
-98 -99 0
-101 -103 0
-101 -104 0
-101 -105 0
-103 -104 0
-103 -105 0
-104 -105 0
-107 -109 0
-107 -110 0
-109 -110 0
-111 -112 0
-111 -113 0
-111 -114 0
-111 -115 0
-112 -113 0
-112 -114 0
-112 -115 0
-113 -114 0
-113 -115 0
-114 -115 0
-117 -118 0
-117 -119 0
-117 -120 0
-118 -119 0
-118 -120 0
-119 -120 0
-121 -122 0
-121 -124 0
-121 -125 0
-122 -124 0
-122 -125 0
-124 -125 0
-126 -127 0
-126 -128 0
-126 -129 0
-126 -130 0
-127 -128 0
-127 -129 0
-127 -130 0
-128 -129 0
-128 -130 0
-129 -130 0
-131 -132 0
-131 -133 0
-131 -134 0
-131 -135 0
-132 -133 0
-132 -134 0
-132 -135 0
-133 -134 0
-133 -135 0
-134 -135 0
-136 -137 0
-136 -139 0
-137 -139 0
-142 -143 0
-142 -144 0
-142 -145 0
-143 -144 0
-143 -145 0
-144 -145 0
-146 -147 0
-146 -148 0
-146 -149 0
-146 -150 0
-147 -148 0
-147 -149 0
-147 -150 0
-148 -149 0
-148 -150 0
-149 -150 0
-151 -152 0
-151 -154 0
-152 -154 0
-156 -157 0
-156 -159 0
-156 -160 0
-157 -159 0
-157 -160 0
-159 -160 0
-161 -162 0
-161 -164 0
-161 -165 0
-162 -164 0
-162 -165 0
-164 -165 0
-166 -169 0
-166 -170 0
-169 -170 0
-171 -172 0
-171 -173 0
-171 -174 0
-171 -175 0
-172 -173 0
-172 -174 0
-172 -175 0
-173 -174 0
-173 -175 0
-174 -175 0
-176 -177 0
-176 -178 0
-176 -179 0
-176 -180 0
-177 -178 0
-177 -179 0
-177 -180 0
-178 -179 0
-178 -180 0
-179 -180 0
-181 -182 0
-181 -183 0
-181 -184 0
-181 -185 0
-182 -183 0
-182 -184 0
-182 -185 0
-183 -184 0
-183 -185 0
-184 -185 0
-186 -188 0
-186 -189 0
-188 -189 0
-191 -192 0
-191 -193 0
-191 -194 0
-192 -193 0
-192 -194 0
-193 -194 0
-199 -200 0
